5 5
0 48 4 82 1 16 3 5 2 65
1 83 3 74 0 21 4 61 2 77
0 55 1 24 2 23 3 87 4 11
2 47 3 2 4 70 0 53 1 11
2 15 1 73 3 12 4 36 0 92
-1
0 2 3 4 5
0 4 5
0 3 5
0 1 4 5
0 1 2 4 5
-2
184 206 197 328
308 337
145 293
64 270 290
16 122 211 360

374 5
0 10 7 18 24
5 21 2 11 19
20 15 4 12 9
16 6 22 3 13
1 17 23 8 14
